100
30
2
3
17
15
18
17
16
2
1
18
2
18
5
3
8
12
4
31
15
31
4
32
19
31
2
3
3
31
32
22
18
32
4
1
18
4
17
24
21
32
19
13
2
26
32
1
14
4
4
15
8
32
1
5
21
2
6
32
3
1
21
2
31
9
1
1
15
32
31
1
16
17
17
12
10
1
10
32
32
22
10
9
7
1
3
19
2
4
31
11
3
31
18
7
14
20
1
4
1
10